c Source: TUDataset AIDS, graph #1051
c Original: n=8, m=6
c Augmented: +3 edges, n=7 -> m=9, circuit_rank=3
c Augmented to satisfy Eulerian condition (no parallel edges)
p sp 7
e 1 4
e 1 7
e 1 3
e 1 6
e 1 2
e 1 5
e 2 3
e 4 5
e 6 7
